p cnf 12 12
11 -12 13 14 15 -16 17 -18 19 -110 111 -112 0
-11 12 -13 14 -15 -16 -17 18 19 110 111 112 0
11 -12 13 14 15 16 17 18 -19 -110 -111 -112 0
11 12 13 14 -15 16 17 -18 -19 110 111 -112 0
11 -12 13 -14 15 -16 17 -18 -19 110 -111 -112 0
-11 -12 13 14 -15 16 17 -18 19 -110 -111 -112 0
11 -12 13 14 15 16 17 -18 -19 110 111 112 0
-11 12 13 -14 -15 -16 -17 18 -19 110 -111 -112 0
11 12 -13 -14 -15 16 -17 -18 19 -110 111 112 0
-11 12 -13 14 15 -16 17 18 -19 110 -111 -112 0
11 12 -13 14 -15 -16 17 -18 19 -110 111 112 0
-11 12 -13 -14 -15 -16 17 -18 19 -110 111 112 0
